Route #1: 775 299 235 455 461 721 898 844 753 478
Route #2: 202 372 108 894 941 686 921 613 105
Route #3: 916 787 463 116 70 322 319 89 831
Route #4: 214 819 281 800 634 632 53 82 173 61
Route #5: 751 28 618 943 656 306 799 626 459
Route #6: 866 854 68 516 927 610 247 110
Route #7: 486 201 695 589 537 297 218 267 320 706 541
Route #8: 487 141 802 257 559 743 911 877 970
Route #9: 74 142 713 540 283 712 278 407
Route #10: 21 928 93 967 986 485 223 635 694 65
Route #11: 489 302 762 651 517 664 915 264 718 411 117 26
Route #12: 726 213 932 122 586 148 547 532 687
Route #13: 14 650 13 572 965 277 971 172 101 845
Route #14: 697 893 384 607 501 253 704 527
Route #15: 673 254 703 449 144 625 729 51 796
Route #16: 394 377 212 758 323 655 313
Cost: 248858
